p cnf 1118
-15 -351
-16 -354
-17 -357
-18 -360
-19 -363
-20 -366
-21 -369
-22 -372
-23 -375
-24 -378
-25 -381
-26 -384
-27 -387
-28 -390
-29 391
-30 392
-31 393
-32 394
-33 395
-34 396
-35 397
-36 398
-37 399
-38 400
-39 401
-40 -16
-40 -17
16 17 40
-41 -18
-41 -19
18 19 41
-42 -20
-42 -21
20 21 42
-43 -22
-43 -23
22 23 43
-44 -24
-44 -25
24 25 44
-45 -26
-45 -27
26 27 45
-46 -28
-46 -29
28 29 46
-47 -30
-47 -31
30 31 47
-48 -32
-48 -33
32 33 48
-49 -34
-49 -35
34 35 49
-50 -36
-50 -37
36 37 50
-51 -38
-51 -39
38 39 51
-52 40
-52 41
-40 -41 52
-53 42
-53 43
-42 -43 53
-54 44
-54 45
-44 -45 54
-55 46
-55 47
-46 -47 55
-56 48
-56 49
-48 -49 56
-57 50
-57 51
-50 -51 57
-58 52
-58 53
-52 -53 58
-59 54
-59 55
-54 -55 59
-60 56
-60 57
-56 -57 60
-61 58
-61 59
-58 -59 61
-62 60
-62 61
-60 -61 62
-63 -15
-63 16
15 -16 63
-64 15
-64 -16
-15 16 64
-65 -63
-65 -64
63 64 65
-66 15
-66 16
-15 -16 66
-67 -15
-67 -65
15 65 67
-68 15
-68 65
-15 -65 68
-69 -67
-69 -68
67 68 69
-70 15
-70 -65
-15 65 70
-71 -66
-71 -70
66 70 71
-72 -16
-72 17
16 -17 72
-73 16
-73 -17
-16 17 73
-74 -72
-74 -73
72 73 74
-75 16
-75 17
-16 -17 75
-76 71
-76 -74
-71 74 76
-77 -71
-77 74
71 -74 77
-78 -76
-78 -77
76 77 78
-79 -71
-79 -74
71 74 79
-80 -75
-80 -79
75 79 80
-81 -17
-81 18
17 -18 81
-82 17
-82 -18
-17 18 82
-83 -81
-83 -82
81 82 83
-84 17
-84 18
-17 -18 84
-85 80
-85 -83
-80 83 85
-86 -80
-86 83
80 -83 86
-87 -85
-87 -86
85 86 87
-88 -80
-88 -83
80 83 88
-89 -84
-89 -88
84 88 89
-90 -18
-90 19
18 -19 90
-91 18
-91 -19
-18 19 91
-92 -90
-92 -91
90 91 92
-93 18
-93 19
-18 -19 93
-94 89
-94 -92
-89 92 94
-95 -89
-95 92
89 -92 95
-96 -94
-96 -95
94 95 96
-97 -89
-97 -92
89 92 97
-98 -93
-98 -97
93 97 98
-99 -19
-99 20
19 -20 99
-100 19
-100 -20
-19 20 100
-101 -99
-101 -100
99 100 101
-102 19
-102 20
-19 -20 102
-103 98
-103 -101
-98 101 103
-104 -98
-104 101
98 -101 104
-105 -103
-105 -104
103 104 105
-106 -98
-106 -101
98 101 106
-107 -102
-107 -106
102 106 107
-108 -20
-108 21
20 -21 108
-109 20
-109 -21
-20 21 109
-110 -108
-110 -109
108 109 110
-111 20
-111 21
-20 -21 111
-112 107
-112 -110
-107 110 112
-113 -107
-113 110
107 -110 113
-114 -112
-114 -113
112 113 114
-115 -107
-115 -110
107 110 115
-116 -111
-116 -115
111 115 116
-117 -21
-117 22
21 -22 117
-118 21
-118 -22
-21 22 118
-119 -117
-119 -118
117 118 119
-120 21
-120 22
-21 -22 120
-121 116
-121 -119
-116 119 121
-122 -116
-122 119
116 -119 122
-123 -121
-123 -122
121 122 123
-124 -116
-124 -119
116 119 124
-125 -120
-125 -124
120 124 125
-126 -22
-126 23
22 -23 126
-127 22
-127 -23
-22 23 127
-128 -126
-128 -127
126 127 128
-129 22
-129 23
-22 -23 129
-130 125
-130 -128
-125 128 130
-131 -125
-131 128
125 -128 131
-132 -130
-132 -131
130 131 132
-133 -125
-133 -128
125 128 133
-134 -129
-134 -133
129 133 134
-135 -23
-135 24
23 -24 135
-136 23
-136 -24
-23 24 136
-137 -135
-137 -136
135 136 137
-138 23
-138 24
-23 -24 138
-139 134
-139 -137
-134 137 139
-140 -134
-140 137
134 -137 140
-141 -139
-141 -140
139 140 141
-142 -134
-142 -137
134 137 142
-143 -138
-143 -142
138 142 143
-144 -24
-144 25
24 -25 144
-145 24
-145 -25
-24 25 145
-146 -144
-146 -145
144 145 146
-147 24
-147 25
-24 -25 147
-148 143
-148 -146
-143 146 148
-149 -143
-149 146
143 -146 149
-150 -148
-150 -149
148 149 150
-151 -143
-151 -146
143 146 151
-152 -147
-152 -151
147 151 152
-153 -25
-153 26
25 -26 153
-154 25
-154 -26
-25 26 154
-155 -153
-155 -154
153 154 155
-156 25
-156 26
-25 -26 156
-157 152
-157 -155
-152 155 157
-158 -152
-158 155
152 -155 158
-159 -157
-159 -158
157 158 159
-160 -152
-160 -155
152 155 160
-161 -156
-161 -160
156 160 161
-162 -26
-162 27
26 -27 162
-163 26
-163 -27
-26 27 163
-164 -162
-164 -163
162 163 164
-165 26
-165 27
-26 -27 165
-166 161
-166 -164
-161 164 166
-167 -161
-167 164
161 -164 167
-168 -166
-168 -167
166 167 168
-169 -161
-169 -164
161 164 169
-170 -165
-170 -169
165 169 170
-171 -27
-171 28
27 -28 171
-172 27
-172 -28
-27 28 172
-173 -171
-173 -172
171 172 173
-174 27
-174 28
-27 -28 174
-175 170
-175 -173
-170 173 175
-176 -170
-176 173
170 -173 176
-177 -175
-177 -176
175 176 177
-178 -170
-178 -173
170 173 178
-179 -174
-179 -178
174 178 179
-180 -28
-180 29
28 -29 180
-181 28
-181 -29
-28 29 181
-182 -180
-182 -181
180 181 182
-183 28
-183 29
-28 -29 183
-184 179
-184 -182
-179 182 184
-185 -179
-185 182
179 -182 185
-186 -184
-186 -185
184 185 186
-187 -179
-187 -182
179 182 187
-188 -183
-188 -187
183 187 188
-189 -29
-189 30
29 -30 189
-190 29
-190 -30
-29 30 190
-191 -189
-191 -190
189 190 191
-192 29
-192 30
-29 -30 192
-193 188
-193 -191
-188 191 193
-194 -188
-194 191
188 -191 194
-195 -193
-195 -194
193 194 195
-196 -188
-196 -191
188 191 196
-197 -192
-197 -196
192 196 197
-198 -30
-198 31
30 -31 198
-199 30
-199 -31
-30 31 199
-200 -198
-200 -199
198 199 200
-201 30
-201 31
-30 -31 201
-202 197
-202 -200
-197 200 202
-203 -197
-203 200
197 -200 203
-204 -202
-204 -203
202 203 204
-205 -197
-205 -200
197 200 205
-206 -201
-206 -205
201 205 206
-207 -31
-207 32
31 -32 207
-208 31
-208 -32
-31 32 208
-209 -207
-209 -208
207 208 209
-210 31
-210 32
-31 -32 210
-211 206
-211 -209
-206 209 211
-212 -206
-212 209
206 -209 212
-213 -211
-213 -212
211 212 213
-214 -206
-214 -209
206 209 214
-215 -210
-215 -214
210 214 215
-216 -32
-216 33
32 -33 216
-217 32
-217 -33
-32 33 217
-218 -216
-218 -217
216 217 218
-219 32
-219 33
-32 -33 219
-220 215
-220 -218
-215 218 220
-221 -215
-221 218
215 -218 221
-222 -220
-222 -221
220 221 222
-223 -215
-223 -218
215 218 223
-224 -219
-224 -223
219 223 224
-225 -33
-225 34
33 -34 225
-226 33
-226 -34
-33 34 226
-227 -225
-227 -226
225 226 227
-228 33
-228 34
-33 -34 228
-229 224
-229 -227
-224 227 229
-230 -224
-230 227
224 -227 230
-231 -229
-231 -230
229 230 231
-232 -224
-232 -227
224 227 232
-233 -228
-233 -232
228 232 233
-234 -34
-234 35
34 -35 234
-235 34
-235 -35
-34 35 235
-236 -234
-236 -235
234 235 236
-237 34
-237 35
-34 -35 237
-238 233
-238 -236
-233 236 238
-239 -233
-239 236
233 -236 239
-240 -238
-240 -239
238 239 240
-241 -233
-241 -236
233 236 241
-242 -237
-242 -241
237 241 242
-243 -35
-243 36
35 -36 243
-244 35
-244 -36
-35 36 244
-245 -243
-245 -244
243 244 245
-246 35
-246 36
-35 -36 246
-247 242
-247 -245
-242 245 247
-248 -242
-248 245
242 -245 248
-249 -247
-249 -248
247 248 249
-250 -242
-250 -245
242 245 250
-251 -246
-251 -250
246 250 251
-252 -36
-252 37
36 -37 252
-253 36
-253 -37
-36 37 253
-254 -252
-254 -253
252 253 254
-255 36
-255 37
-36 -37 255
-256 251
-256 -254
-251 254 256
-257 -251
-257 254
251 -254 257
-258 -256
-258 -257
256 257 258
-259 -251
-259 -254
251 254 259
-260 -255
-260 -259
255 259 260
-261 -37
-261 38
37 -38 261
-262 37
-262 -38
-37 38 262
-263 -261
-263 -262
261 262 263
-264 37
-264 38
-37 -38 264
-265 260
-265 -263
-260 263 265
-266 -260
-266 263
260 -263 266
-267 -265
-267 -266
265 266 267
-268 -260
-268 -263
260 263 268
-269 -264
-269 -268
264 268 269
-270 -38
-270 39
38 -39 270
-271 38
-271 -39
-38 39 271
-272 -270
-272 -271
270 271 272
-273 38
-273 39
-38 -39 273
-274 269
-274 -272
-269 272 274
-275 -269
-275 272
269 -272 275
-276 -274
-276 -275
274 275 276
-277 -269
-277 -272
269 272 277
-278 -273
-278 -277
273 277 278
-279 15
-279 -69
-15 69 279
-280 -15
-280 17
15 -17 280
-281 -279
-281 -280
279 280 281
-282 15
-282 -78
-15 78 282
-283 -15
-283 18
15 -18 283
-284 -282
-284 -283
282 283 284
-285 15
-285 -87
-15 87 285
-286 -15
-286 19
15 -19 286
-287 -285
-287 -286
285 286 287
-288 15
-288 -96
-15 96 288
-289 -15
-289 20
15 -20 289
-290 -288
-290 -289
288 289 290
-291 15
-291 -105
-15 105 291
-292 -15
-292 21
15 -21 292
-293 -291
-293 -292
291 292 293
-294 15
-294 -114
-15 114 294
-295 -15
-295 22
15 -22 295
-296 -294
-296 -295
294 295 296
-297 15
-297 -123
-15 123 297
-298 -15
-298 23
15 -23 298
-299 -297
-299 -298
297 298 299
-300 15
-300 -132
-15 132 300
-301 -15
-301 24
15 -24 301
-302 -300
-302 -301
300 301 302
-303 15
-303 -141
-15 141 303
-304 -15
-304 25
15 -25 304
-305 -303
-305 -304
303 304 305
-306 15
-306 -150
-15 150 306
-307 -15
-307 26
15 -26 307
-308 -306
-308 -307
306 307 308
-309 15
-309 -159
-15 159 309
-310 -15
-310 27
15 -27 310
-311 -309
-311 -310
309 310 311
-312 15
-312 -168
-15 168 312
-313 -15
-313 28
15 -28 313
-314 -312
-314 -313
312 313 314
-315 15
-315 -177
-15 177 315
-316 -15
-316 29
15 -29 316
-317 -315
-317 -316
315 316 317
-318 15
-318 -186
-15 186 318
-319 -15
-319 30
15 -30 319
-320 -318
-320 -319
318 319 320
-321 15
-321 -195
-15 195 321
-322 -15
-322 31
15 -31 322
-323 -321
-323 -322
321 322 323
-324 15
-324 -204
-15 204 324
-325 -15
-325 32
15 -32 325
-326 -324
-326 -325
324 325 326
-327 15
-327 -213
-15 213 327
-328 -15
-328 33
15 -33 328
-329 -327
-329 -328
327 328 329
-330 15
-330 -222
-15 222 330
-331 -15
-331 34
15 -34 331
-332 -330
-332 -331
330 331 332
-333 15
-333 -231
-15 231 333
-334 -15
-334 35
15 -35 334
-335 -333
-335 -334
333 334 335
-336 15
-336 -240
-15 240 336
-337 -15
-337 36
15 -36 337
-338 -336
-338 -337
336 337 338
-339 15
-339 -249
-15 249 339
-340 -15
-340 37
15 -37 340
-341 -339
-341 -340
339 340 341
-342 15
-342 -258
-15 258 342
-343 -15
-343 38
15 -38 343
-344 -342
-344 -343
342 343 344
-345 15
-345 -267
-15 267 345
-346 -15
-346 39
15 -39 346
-347 -345
-347 -346
345 346 347
-348 15
-348 -276
-15 276 348
-349 1
-349 62
-1 -62 349
-350 -62
-350 63
62 -63 350
-351 -349
-351 -350
349 350 351
-352 2
-352 62
-2 -62 352
-353 -62
-353 -281
62 281 353
-354 -352
-354 -353
352 353 354
-355 3
-355 62
-3 -62 355
-356 -62
-356 -284
62 284 356
-357 -355
-357 -356
355 356 357
-358 4
-358 62
-4 -62 358
-359 -62
-359 -287
62 287 359
-360 -358
-360 -359
358 359 360
-361 5
-361 62
-5 -62 361
-362 -62
-362 -290
62 290 362
-363 -361
-363 -362
361 362 363
-364 6
-364 62
-6 -62 364
-365 -62
-365 -293
62 293 365
-366 -364
-366 -365
364 365 366
-367 7
-367 62
-7 -62 367
-368 -62
-368 -296
62 296 368
-369 -367
-369 -368
367 368 369
-370 8
-370 62
-8 -62 370
-371 -62
-371 -299
62 299 371
-372 -370
-372 -371
370 371 372
-373 9
-373 62
-9 -62 373
-374 -62
-374 -302
62 302 374
-375 -373
-375 -374
373 374 375
-376 10
-376 62
-10 -62 376
-377 -62
-377 -305
62 305 377
-378 -376
-378 -377
376 377 378
-379 11
-379 62
-11 -62 379
-380 -62
-380 -308
62 308 380
-381 -379
-381 -380
379 380 381
-382 12
-382 62
-12 -62 382
-383 -62
-383 -311
62 311 383
-384 -382
-384 -383
382 383 384
-385 13
-385 62
-13 -62 385
-386 -62
-386 -314
62 314 386
-387 -385
-387 -386
385 386 387
-388 14
-388 62
-14 -62 388
-389 -62
-389 -317
62 317 389
-390 -388
-390 -389
388 389 390
-391 -62
-391 -320
62 320 391
-392 -62
-392 -323
62 323 392
-393 -62
-393 -326
62 326 393
-394 -62
-394 -329
62 329 394
-395 -62
-395 -332
62 332 395
-396 -62
-396 -335
62 335 396
-397 -62
-397 -338
62 338 397
-398 -62
-398 -341
62 341 398
-399 -62
-399 -344
62 344 399
-400 -62
-400 -347
62 347 400
-401 -62
-401 348
62 -348 401
-402 -39
-402 278
39 -278 402
-403 15
-403 -402
-15 402 403
403
